/* Objective function */
max: -0.240581 abilene christian +0.0535622 air force -0.1688959 akron +0.0040357 alabama a&m -0.0178308 alabama state
 -0.0326808 albany -0.0516039 alcorn state -0.0946233 american -0.2171692 appalachian state +0.0751051 arkansas pine bluff
 -0.1189871 arkansas state +0.092059 army +0.0445105 austin peay -0.1468828 ball state +0.0548482 belmont
 -0.073365 bethune cookman +0.1549046 binghamton +0.2015091 boise state -0.2040083 boston university
 -0.025864 bowling green +0.1299872 bradley +0.204394 brown -0.0277711 bryant -0.0176693 bucknell -0.2607863 buffalo
 +0.3632292 byu +0.0066385 cal poly -0.0674986 cal state bakersfield +0.0141273 cal state fullerton +0.030245 cal state northridge
 -0.0166483 campbell -0.2034413 canisius -0.0204225 central arkansas +0.0267256 central connecticut state
 -0.3050671 central michigan -0.0317435 charleston +0.0725491 charleston southern +0.0592412 charlotte
 +0.0291114 chattanooga -0.0072689 chicago state +0.0146836 cleveland state +0.0269354 coastal carolina
 -0.0631086 colgate +0.0337918 colorado state -0.0415287 columbia +0.0175256 coppin state -0.1043394 cornell
 -0.0062525 dartmouth -0.2293676 davidson -0.0444448 dayton +0.039177 delaware +0.0268262 delaware state
 -0.0039056 denver -0.009315 detroit +0.3391737 drake -0.0081597 drexel +0.0748144 duquesne -0.5632939 east tennessee state
 -0.0853746 eastern illinois +0.0722248 eastern kentucky +0.0878385 eastern michigan -0.1640995 eastern washington
 -0.016597 elon +0.1597813 evansville +0.0390854 fairfield +0.0116367 fairleigh dickinson +0.0235729 fiu
 +0.2966842 florida atlantic +0.326621 florida gulf coast -0.0656376 fordham -0.1263603 fresno state
 -0.0734501 furman +0.0834924 gardner webb +0.186101 george mason -0.0018163 george washington +0.0537653 georgia southern
 +0.0166645 georgia state +0.2588163 gonzaga +0.0639643 grambling state +0.2785216 grand canyon -0.0048163 wisconsin green bay
 -0.113292 hampton +0.027324 hartford +0.317147 harvard +0.0765126 hawaii +0.0844126 high point -0.0369234 hofstra
 -0.2052008 holy cross +0.003962 houston baptist +0.0309158 howard -0.0706447 idaho -0.004634 idaho state
 +0.1556821 illinois chicago +0.0913314 incarnate word +0.0399942 indiana state +0.0573654 iona +0.0313711 iupui
 -0.0045279 jackson state +0.1807718 jacksonville -0.1814421 jacksonville state +0.1360563 james madison
 -0.0601091 kennesaw state +0.0011476 kent state -0.0922678 la salle +0.0442535 lafayette +0.0720335 lamar
 +0.214383 lehigh -0.034274 liberty -0.4489439 lipscomb +0.0611693 little rock -0.0098741 long island
 -0.1183766 long beach state -0.0370145 longwood -0.1692595 louisiana lafayette -0.1724481 louisiana monroe
 -0.1177612 louisiana tech -0.0102406 loyola chicago +0.0987798 loyola marymount +0.1119489 loyola md
 +0.0566066 maine +0.0160606 manhattan -0.2358762 marist +0.1012853 marshall -0.1003315 maryland eastern shore
 -0.0096422 massachusetts +0.0340414 mcneese state +0.0495048 mercer -0.0791904 miami oh +0.3988552 middle tennessee state
 +0.1248358 wisconsin milwaukee -0.0033418 mississippi valley state +0.356542 missouri state -0.0142752 monmouth
 +0.1333063 montana +0.0249783 montana state -0.0096167 morehead state +0.0198995 morgan state +0.2792662 murray state
 -0.0607805 navy -0.0241985 omaha +0.8881058 nevada +0.0340961 new hampshire +0.0513671 new mexico -0.3891212 new mexico state
 +0.1185883 new orleans +0.0076302 niagara -0.0031496 nicholls state +0.0078895 njit +0.0774875 norfolk state
 -0.0253699 north carolina a&t -0.02677 north carolina central -0.0883857 north dakota +0.3205236 north dakota state
 -0.1659939 north florida +0.2857614 north texas +0.2405939 northeastern -0.0429921 northern arizona
 +0.0461645 northern colorado +0.0019717 northern illinois -0.1706885 northern iowa +0.1545433 northern kentucky
 -0.0133981 northwestern state -0.090423 oakland +0.140538 ohio -0.202493 old dominion +0.3021566 oral roberts
 -0.0488862 pacific +0.0754299 pennsylvania +0.0538045 pepperdine -0.0670697 portland -0.1533559 portland state
 +0.1438516 prairie view a&m +0.0058084 presbyterian -0.0215423 princeton -0.1018044 ipfw -0.0337262 quinnipiac
 -0.005565 radford -0.0535909 rhode island -0.0349062 rice -0.0968804 richmond -0.4102837 rider -0.0412681 robert morris
 -0.044017 sacramento state +0.0440208 sacred heart +0.0862088 saint josephs -0.00177040000001 saint louis
 +0.038178 st marys +0.2623958 st peters -0.2338749 sam houston state +0.0525207 samford -0.000219299999998 san diego
 +0.0570951 san diego state -0.086963 san francisco +0.0513926 san jose state +0.1990517 santa clara
 -0.0189995 savannah state -0.0940122 seattle -0.1571907 siena -0.0768598 siu edwardsville +0.1017774 south alabama
 -0.0121016 south carolina state -0.1448693 south dakota -0.0709283 south dakota state -0.0636808 southeast missouri state
 -0.0748911 southeastern louisiana -0.0208328 southern +0.1309889 southern illinois +0.1713756 southern mississippi
 -0.1044242 southern utah +0.1908418 st bonaventure +0.0415767 st francis ny +0.2500563 st francis pa
 -0.2165401 stephen f austin -0.0129059 stetson -0.0121537 stony brook -0.0747615 tennessee martin -0.186638 tennessee state
 -0.0414157 tennessee tech -0.0661037 texas a&m corpus christi +0.057274 texas southern +0.1229042 texas state
 +0.1001719 citadel -0.2372003 toledo -0.1144736 towson -0.0918738 troy +0.0492867 uab -0.0418175 uc davis
 +0.2174736 uc irvine +0.002046 uc riverside -0.168527 uc santa barbara +0.069408 umass lowell +0.2075607 umbc
 +0.0469081 missouri kansas city -0.0684113 unc asheville -0.376357 unc greensboro -0.1092053 unc wilmington
 +0.1292384 unlv +0.1221899 usc upstate +0.1348351 ut arlington -0.0182539 texas rgv -0.0244082 utah state
 +0.0125261 utah valley -0.0181083 utep +0.2773792 texas san antonio -0.1101558 valparaiso +0.2771221 vcu
 -0.0635486 vermont -0.016274 virginia military +0.3337238 wagner -0.0012815 weber state -0.09003 western carolina
 +0.0156245 western illinois -0.3759854 western kentucky -0.0304582 western michigan +0.0336534 william & mary
 +0.0483895 winthrop +0.0594659 wofford -0.1188127 wright state -0.1523361 wyoming +0.1326439 yale +0.0512074 youngstown state;

/* Constraints */
+17.81 abilene christian +20.49 air force +23.08 akron +2.94 alabama a&m +11.2 alabama state +18.26 albany
 +6.18 alcorn state +19.73 american +22.99 appalachian state +7.07 arkansas pine bluff +16.34 arkansas state
 +19.67 army +22.32 austin peay +29.53 ball state +29.96 belmont +14.36 bethune cookman +17.62 binghamton
 +29.4 boise state +18.88 boston university +22.89 bowling green +29.27 bradley +21.81 brown +11.43 bryant
 +20.9 bucknell +34.39 buffalo +36.14 byu +19.61 cal baptist +11.7 cal poly +21.31 cal state bakersfield
 +27.02 cal state fullerton +7.38 cal state northridge +19.89 campbell +24.37 canisius +14.58 central arkansas
 +13.25 central connecticut state +22.26 central michigan +30.55 charleston +19.06 charleston southern
 +14.25 charlotte +11.58 chattanooga +5.45 chicago state +13.75 cleveland state +18.12 coastal carolina
 +21.02 colgate +21.65 colorado state +20.39 columbia +3.51 coppin state +17.74 cornell +16.84 dartmouth
 +32.82 davidson +30.61 dayton +18.72 delaware +1.25 delaware state +19.85 denver +9.81 detroit +19.82 drake
 +14.4 drexel +23.85 duquesne +24.67 east tennessee state +13.65 eastern illinois +16.69 eastern kentucky
 +29.26 eastern michigan +22.94 eastern washington +20.1 elon +20.71 evansville +19.72 fairfield +17.09 fairleigh dickinson
 +19.71 fiu +13.56 florida atlantic +21.01 florida gulf coast +18.67 fordham +29.54 fresno state +26.18 furman
 +17.37 gardner webb +28.9 george mason +22.01 george washington +25.89 georgia southern +31.63 georgia state
 +47.71 gonzaga +12.64 grambling state +25.57 grand canyon +17.41 wisconsin green bay +18.53 hampton
 +21.84 hartford +32.44 harvard +19.97 hawaii +17.64 high point +25.46 hofstra +20.88 holy cross +15.02 houston baptist
 +11.73 howard +18.56 idaho +17.31 idaho state +31.85 illinois chicago +7.46 incarnate word +25.78 indiana state
 +25.71 iona +14.65 iupui +0.47 jackson state +15.36 jacksonville +24.7 jacksonville state +25.7 james madison
 +10.2 kennesaw state +23.01 kent state +23.58 la salle +14.46 lafayette +18.24 lamar +22.93 lehigh +26.54 liberty
 +27.44 lipscomb +15.12 little rock +15.28 long island +21.6 long beach state +8.97 longwood +28.58 louisiana lafayette
 +18.49 louisiana monroe +27.44 louisiana tech +35.08 loyola chicago +26.72 loyola marymount +13.81 loyola md
 +8.84 maine +14.79 manhattan +16.8 marist +31.11 marshall +6.9 maryland eastern shore +26.74 massachusetts
 +9.74 mcneese state +18.22 mercer +23.03 miami oh +25.63 middle tennessee state +17.19 wisconsin milwaukee
 +4.13 mississippi valley state +21.9 missouri state +23.33 monmouth +33.94 montana +16.62 montana state
 +20.77 morehead state +5.82 morgan state +10.82 mount st marys +27.5 murray state +16.43 navy +20.22 omaha
 +48.94 nevada +12.5 new hampshire +28.83 new mexico +30.23 new mexico state +13.77 new orleans +16.48 niagara
 +14.23 nicholls state +18.3 njit +13.88 norfolk state +7.32 north alabama +5.04 north carolina a&t +15.33 north carolina central
 +18.73 north dakota +20.69 north dakota state +19.38 north florida +24.5 north texas +33.13 northeastern
 +11.47 northern arizona +23.13 northern colorado +22.95 northern illinois +27.96 northern iowa +27.32 northern kentucky
 +6.5 northwestern state +19.18 oakland +27.44 ohio +32.12 old dominion +18.79 oral roberts +26.65 pacific
 +25.77 pennsylvania +19.74 pepperdine +20.78 portland +19.18 portland state +13.65 prairie view a&m
 +11.49 presbyterian +26.17 princeton +24.69 ipfw +18.84 quinnipiac +24.7 radford +29.75 rhode island
 +13.82 rice +29.01 richmond +30.5 rider +17.01 robert morris +17.84 sacramento state +10.66 sacred heart
 +30.33 saint josephs +34.87 saint louis +33.91 st marys +21.94 st peters +14.37 sam houston state +11.33 samford
 +27.35 san diego +35.39 san diego state +27.02 san francisco +10.63 san jose state +22 santa clara +5.06 savannah state
 +17.48 seattle +17.89 siena +11.36 siu edwardsville +23.55 south alabama +4.44 south carolina state
 +26.72 south dakota +33.08 south dakota state +12.64 southeast missouri state +16.73 southeastern louisiana
 +6 southern +31.7 southern illinois +24.48 southern mississippi +15.97 southern utah +30.3 st bonaventure
 +10.18 st francis ny +24.36 st francis pa +27.31 stephen f austin +8.34 stetson +19.76 stony brook +15.72 tennessee martin
 +16.61 tennessee state +14.51 tennessee tech +12.07 texas a&m corpus christi +15.75 texas southern +21.09 texas state
 +17.19 citadel +28.56 toledo +19.42 towson +24.51 troy +24.73 uab +23.82 uc davis +30.54 uc irvine +12.39 uc riverside
 +21.94 uc santa barbara +12.1 umass lowell +18.91 umbc +17.1 missouri kansas city +16.61 unc asheville
 +31.34 unc greensboro +23 unc wilmington +26.44 unlv +10.74 usc upstate +19.46 ut arlington +11.46 texas rgv
 +24.39 utah state +24.9 utah valley +16.08 utep +24.48 texas san antonio +27.4 valparaiso +27.77 vcu
 +27.78 vermont +12.66 virginia military +21.71 wagner +27.95 weber state +10.73 western carolina +18.43 western illinois
 +33.05 western kentucky +20.36 western michigan +27.75 william & mary +23.07 winthrop +28.28 wofford
 +27.86 wright state +26.47 wyoming +28.89 yale +10.57 youngstown state <= 500;

/* Variable bounds */
abilene christian <= 1;
air force <= 1;
akron <= 1;
alabama a&m <= 1;
alabama state <= 1;
albany <= 1;
alcorn state <= 1;
american <= 1;
appalachian state <= 1;
arkansas pine bluff <= 1;
arkansas state <= 1;
army <= 1;
austin peay <= 1;
ball state <= 1;
belmont <= 1;
bethune cookman <= 1;
binghamton <= 1;
boise state <= 1;
boston university <= 1;
bowling green <= 1;
bradley <= 1;
brown <= 1;
bryant <= 1;
bucknell <= 1;
buffalo <= 1;
byu <= 1;
cal baptist <= 1;
cal poly <= 1;
cal state bakersfield <= 1;
cal state fullerton <= 1;
cal state northridge <= 1;
campbell <= 1;
canisius <= 1;
central arkansas <= 1;
central connecticut state <= 1;
central michigan <= 1;
charleston <= 1;
charleston southern <= 1;
charlotte <= 1;
chattanooga <= 1;
chicago state <= 1;
cleveland state <= 1;
coastal carolina <= 1;
colgate <= 1;
colorado state <= 1;
columbia <= 1;
coppin state <= 1;
cornell <= 1;
dartmouth <= 1;
davidson <= 1;
dayton <= 1;
delaware <= 1;
delaware state <= 1;
denver <= 1;
detroit <= 1;
drake <= 1;
drexel <= 1;
duquesne <= 1;
east tennessee state <= 1;
eastern illinois <= 1;
eastern kentucky <= 1;
eastern michigan <= 1;
eastern washington <= 1;
elon <= 1;
evansville <= 1;
fairfield <= 1;
fairleigh dickinson <= 1;
fiu <= 1;
florida atlantic <= 1;
florida gulf coast <= 1;
fordham <= 1;
fresno state <= 1;
furman <= 1;
gardner webb <= 1;
george mason <= 1;
george washington <= 1;
georgia southern <= 1;
georgia state <= 1;
gonzaga <= 1;
grambling state <= 1;
grand canyon <= 1;
wisconsin green bay <= 1;
hampton <= 1;
hartford <= 1;
harvard <= 1;
hawaii <= 1;
high point <= 1;
hofstra <= 1;
holy cross <= 1;
houston baptist <= 1;
howard <= 1;
idaho <= 1;
idaho state <= 1;
illinois chicago <= 1;
incarnate word <= 1;
indiana state <= 1;
iona <= 1;
iupui <= 1;
jackson state <= 1;
jacksonville <= 1;
jacksonville state <= 1;
james madison <= 1;
kennesaw state <= 1;
kent state <= 1;
la salle <= 1;
lafayette <= 1;
lamar <= 1;
lehigh <= 1;
liberty <= 1;
lipscomb <= 1;
little rock <= 1;
long island <= 1;
long beach state <= 1;
longwood <= 1;
louisiana lafayette <= 1;
louisiana monroe <= 1;
louisiana tech <= 1;
loyola chicago <= 1;
loyola marymount <= 1;
loyola md <= 1;
maine <= 1;
manhattan <= 1;
marist <= 1;
marshall <= 1;
maryland eastern shore <= 1;
massachusetts <= 1;
mcneese state <= 1;
mercer <= 1;
miami oh <= 1;
middle tennessee state <= 1;
wisconsin milwaukee <= 1;
mississippi valley state <= 1;
missouri state <= 1;
monmouth <= 1;
montana <= 1;
montana state <= 1;
morehead state <= 1;
morgan state <= 1;
mount st marys <= 1;
murray state <= 1;
navy <= 1;
omaha <= 1;
nevada <= 1;
new hampshire <= 1;
new mexico <= 1;
new mexico state <= 1;
new orleans <= 1;
niagara <= 1;
nicholls state <= 1;
njit <= 1;
norfolk state <= 1;
north alabama <= 1;
north carolina a&t <= 1;
north carolina central <= 1;
north dakota <= 1;
north dakota state <= 1;
north florida <= 1;
north texas <= 1;
northeastern <= 1;
northern arizona <= 1;
northern colorado <= 1;
northern illinois <= 1;
northern iowa <= 1;
northern kentucky <= 1;
northwestern state <= 1;
oakland <= 1;
ohio <= 1;
old dominion <= 1;
oral roberts <= 1;
pacific <= 1;
pennsylvania <= 1;
pepperdine <= 1;
portland <= 1;
portland state <= 1;
prairie view a&m <= 1;
presbyterian <= 1;
princeton <= 1;
ipfw <= 1;
quinnipiac <= 1;
radford <= 1;
rhode island <= 1;
rice <= 1;
richmond <= 1;
rider <= 1;
robert morris <= 1;
sacramento state <= 1;
sacred heart <= 1;
saint josephs <= 1;
saint louis <= 1;
st marys <= 1;
st peters <= 1;
sam houston state <= 1;
samford <= 1;
san diego <= 1;
san diego state <= 1;
san francisco <= 1;
san jose state <= 1;
santa clara <= 1;
savannah state <= 1;
seattle <= 1;
siena <= 1;
siu edwardsville <= 1;
south alabama <= 1;
south carolina state <= 1;
south dakota <= 1;
south dakota state <= 1;
southeast missouri state <= 1;
southeastern louisiana <= 1;
southern <= 1;
southern illinois <= 1;
southern mississippi <= 1;
southern utah <= 1;
st bonaventure <= 1;
st francis ny <= 1;
st francis pa <= 1;
stephen f austin <= 1;
stetson <= 1;
stony brook <= 1;
tennessee martin <= 1;
tennessee state <= 1;
tennessee tech <= 1;
texas a&m corpus christi <= 1;
texas southern <= 1;
texas state <= 1;
citadel <= 1;
toledo <= 1;
towson <= 1;
troy <= 1;
uab <= 1;
uc davis <= 1;
uc irvine <= 1;
uc riverside <= 1;
uc santa barbara <= 1;
umass lowell <= 1;
umbc <= 1;
missouri kansas city <= 1;
unc asheville <= 1;
unc greensboro <= 1;
unc wilmington <= 1;
unlv <= 1;
usc upstate <= 1;
ut arlington <= 1;
texas rgv <= 1;
utah state <= 1;
utah valley <= 1;
utep <= 1;
texas san antonio <= 1;
valparaiso <= 1;
vcu <= 1;
vermont <= 1;
virginia military <= 1;
wagner <= 1;
weber state <= 1;
western carolina <= 1;
western illinois <= 1;
western kentucky <= 1;
western michigan <= 1;
william & mary <= 1;
winthrop <= 1;
wofford <= 1;
wright state <= 1;
wyoming <= 1;
yale <= 1;
youngstown state <= 1;

/* Integer definitions */
int abilene christian,air force,akron,alabama a&m,alabama state,albany,alcorn state,american,appalachian state,arkansas pine bluff,arkansas state,army,austin peay,ball state,belmont,bethune cookman,binghamton,boise state,boston university,bowling green,bradley,brown,bryant,bucknell,buffalo,byu,cal baptist,cal poly,cal state bakersfield,cal state fullerton,cal state northridge,campbell,canisius,central arkansas,central connecticut state,central michigan,charleston,charleston southern,charlotte,chattanooga,chicago state,cleveland state,coastal carolina,colgate,colorado state,columbia,coppin state,cornell,dartmouth,davidson,dayton,delaware,delaware state,denver,detroit,drake,drexel,duquesne,east tennessee state,eastern illinois,eastern kentucky,eastern michigan,eastern washington,elon,evansville,fairfield,fairleigh dickinson,fiu,florida atlantic,florida gulf coast,fordham,fresno state,furman,gardner webb,george mason,george washington,georgia southern,georgia state,gonzaga,grambling state,grand canyon,wisconsin green bay,hampton,hartford,harvard,hawaii,high point,hofstra,holy cross,houston baptist,howard,idaho,idaho state,illinois chicago,incarnate word,indiana state,iona,iupui,jackson state,jacksonville,jacksonville state,james madison,kennesaw state,kent state,la salle,lafayette,lamar,lehigh,liberty,lipscomb,little rock,long island,long beach state,longwood,louisiana lafayette,louisiana monroe,louisiana tech,loyola chicago,loyola marymount,loyola md,maine,manhattan,marist,marshall,maryland eastern shore,massachusetts,mcneese state,mercer,miami oh,middle tennessee state,wisconsin milwaukee,mississippi valley state,missouri state,monmouth,montana,montana state,morehead state,morgan state,mount st marys,murray state,navy,omaha,nevada,new hampshire,new mexico,new mexico state,new orleans,niagara,nicholls state,njit,norfolk state,north alabama,north carolina a&t,north carolina central,north dakota,north dakota state,north florida,north texas,northeastern,northern arizona,northern colorado,northern illinois,northern iowa,northern kentucky,northwestern state,oakland,ohio,old dominion,oral roberts,pacific,pennsylvania,pepperdine,portland,portland state,prairie view a&m,presbyterian,princeton,ipfw,quinnipiac,radford,rhode island,rice,richmond,rider,robert morris,sacramento state,sacred heart,saint josephs,saint louis,st marys,st peters,sam houston state,samford,san diego,san diego state,san francisco,san jose state,santa clara,savannah state,seattle,siena,siu edwardsville,south alabama,south carolina state,south dakota,south dakota state,southeast missouri state,southeastern louisiana,southern,southern illinois,southern mississippi,southern utah,st bonaventure,st francis ny,st francis pa,stephen f austin,stetson,stony brook,tennessee martin,tennessee state,tennessee tech,texas a&m corpus christi,texas southern,texas state,citadel,toledo,towson,troy,uab,uc davis,uc irvine,uc riverside,uc santa barbara,umass lowell,umbc,missouri kansas city,unc asheville,unc greensboro,unc wilmington,unlv,usc upstate,ut arlington,texas rgv,utah state,utah valley,utep,texas san antonio,valparaiso,vcu,vermont,virginia military,wagner,weber state,western carolina,western illinois,western kentucky,western michigan,william & mary,winthrop,wofford,wright state,wyoming,yale,youngstown state;
